Route #1: 23 41 47 77 152 43 139 140 172 9 37 59 1 51 120 39 
Route #2: 34 3 100 182 135 170 83 176 98 121 189 20 30 109 12 110 54 4 165 87 113 25 148 
Route #3: 56 116 65 19 118 129 103 88 29 155 15 147 160 195 132 31 185 71 101 48 178 112 145 102 60 67 18 80 
Route #4: 96 107 38 95 128 194 159 193 27 40 6 21 68 32 13 114 124 156 22 55 168 
Route #5: 99 181 8 57 5 26 157 166 161 64 142 91 66 126 79 133 17 89 16 58 84 50 173 174 154 169 53 164 
Route #6: 111 144 74 62 192 36 33 35 177 134 149 94 28 108 76 188 97 52 
Route #7: 115 92 61 125 143 42 119 184 167 197 44 127 146 122 200 191 75 69 186 196 138 7 187 24 136 45 86 183 171 
Route #8: 131 199 72 49 175 81 137 117 162 179 158 190 106 104 2 63 82 
Route #9: 151 78 150 90 141 11 123 130 198 93 10 105 46 14 85 73 180 153 70 163 
Cost 2537.5
